\ This file has been generated by DOcplex
\ ENCODING=ISO-8859-1
\Problem name: random_problem.lp

Minimize
 obj: - 488 x0 - 244 x1 - 122 x2 + 400 x3 + 200 x4 + 100 x5 - 592 x6 - 296 x7
      - 148 x8 + 344 x9 + 172 x10 + 86 x11 + 112 x12 + 56 x13 + 28 x14 + [
      2944 x0^2 + 2944 x0*x1 + 1472 x0*x2 + 4416 x0*x3 + 2208 x0*x4 + 1104 x0*x5
      + 2304 x0*x6 + 1152 x0*x7 + 576 x0*x8 + 2752 x0*x9 + 1376 x0*x10
      + 688 x0*x11 + 3328 x0*x12 + 1664 x0*x13 + 832 x0*x14 + 736 x1^2
      + 736 x1*x2 + 2208 x1*x3 + 1104 x1*x4 + 552 x1*x5 + 1152 x1*x6 + 576 x1*x7
      + 288 x1*x8 + 1376 x1*x9 + 688 x1*x10 + 344 x1*x11 + 1664 x1*x12
      + 832 x1*x13 + 416 x1*x14 + 184 x2^2 + 1104 x2*x3 + 552 x2*x4 + 276 x2*x5
      + 576 x2*x6 + 288 x2*x7 + 144 x2*x8 + 688 x2*x9 + 344 x2*x10 + 172 x2*x11
      + 832 x2*x12 + 416 x2*x13 + 208 x2*x14 + 3232 x3^2 + 3232 x3*x4
      + 1616 x3*x5 + 1408 x3*x6 + 704 x3*x7 + 352 x3*x8 + 2560 x3*x9
      + 1280 x3*x10 + 640 x3*x11 + 2624 x3*x12 + 1312 x3*x13 + 656 x3*x14
      + 808 x4^2 + 808 x4*x5 + 704 x4*x6 + 352 x4*x7 + 176 x4*x8 + 1280 x4*x9
      + 640 x4*x10 + 320 x4*x11 + 1312 x4*x12 + 656 x4*x13 + 328 x4*x14
      + 202 x5^2 + 352 x5*x6 + 176 x5*x7 + 88 x5*x8 + 640 x5*x9 + 320 x5*x10
      + 160 x5*x11 + 656 x5*x12 + 328 x5*x13 + 164 x5*x14 + 2144 x6^2
      + 2144 x6*x7 + 1072 x6*x8 + 3072 x6*x9 + 1536 x6*x10 + 768 x6*x11
      + 1664 x6*x12 + 832 x6*x13 + 416 x6*x14 + 536 x7^2 + 536 x7*x8
      + 1536 x7*x9 + 768 x7*x10 + 384 x7*x11 + 832 x7*x12 + 416 x7*x13
      + 208 x7*x14 + 134 x8^2 + 768 x8*x9 + 384 x8*x10 + 192 x8*x11 + 416 x8*x12
      + 208 x8*x13 + 104 x8*x14 + 4288 x9^2 + 4288 x9*x10 + 2144 x9*x11
      + 320 x9*x12 + 160 x9*x13 + 80 x9*x14 + 1072 x10^2 + 1072 x10*x11
      + 160 x10*x12 + 80 x10*x13 + 40 x10*x14 + 268 x11^2 + 80 x11*x12
      + 40 x11*x13 + 20 x11*x14 + 1952 x12^2 + 1952 x12*x13 + 976 x12*x14
      + 488 x13^2 + 488 x13*x14 + 122 x14^2 ]/2
Subject To
 c0: 4 x0 + 2 x1 + x2 + 4 x3 + 2 x4 + x5 + 4 x6 + 2 x7 + x8 + 4 x9 + 2 x10 + x11
     + 4 x12 + 2 x13 + x14 = 7

Bounds
 0 <= x0 <= 1
 0 <= x1 <= 1
 0 <= x2 <= 1
 0 <= x3 <= 1
 0 <= x4 <= 1
 0 <= x5 <= 1
 0 <= x6 <= 1
 0 <= x7 <= 1
 0 <= x8 <= 1
 0 <= x9 <= 1
 0 <= x10 <= 1
 0 <= x11 <= 1
 0 <= x12 <= 1
 0 <= x13 <= 1
 0 <= x14 <= 1

Binaries
 x0 x1 x2 x3 x4 x5 x6 x7 x8 x9 x10 x11 x12 x13 x14
End
